WARNING: for repeatability, setting FPU to use double precision
============================[ Problem Statistics ]=============================
|                                                                             |
|  Number of variables:         64138                                         |
|  Number of clauses:          181071                                         |
|  Parse time:                   0.04 s                                       |
|                                                                             |
c ============================[ Search Statistics ]==============================
c | Conflicts |          ORIGINAL         |          LEARNT          | Progress |
c |           |    Vars  Clauses Literals |    Limit  Clauses Lit/Cl |          |
c ===============================================================================
c Switched to VSIDS.
c Switched to LRB.
c Switched to VSIDS.
c Switched to LRB.
c ===============================================================================
restarts                  : 406
conflicts                 : 58260          (822 /sec)
decisions                 : 7380489        (0.00 % random) (104140 /sec)
propagations              : 179799075      (2537007 /sec)
conflict literals         : 4633574        (42.98 % deleted)

conflicts w/ DIP found    : 49441          (84.86 % of conflicts)
conflicts w/ dangerous DIP: 0              (0.00 % of conflicts)
conflicts w/ DIP-learning : 47             (0.08 % of conflicts)
decisions on ext vars     : 2000           (0.03 % of decisions)
total ext vars            : 20          
tried delete ext vars     : 15          
deleted ext vars          : 15          
max ext vars              : 12          

Memory used               : 59.00 MB
CPU time                  : 70.8706 s
DIP computation time      : 1.47536 s (2.08 % of total time)
ER_sel time               : 0.072002 s
ER_add time               : 0.000176 s
ER_delC time              : 0 s
ER_delV time              : 0.002043 s
ER_sub time               : 0.11427 s
ER_stat time              : 0 s

UNSATISFIABLE
